; benchmark generated from python API
(set-info :status unknown)
(declare-fun x_months () Int)
(declare-fun x_beta () Int)
(assert
 (<= (- 1200) x_months))
(assert
 (>= 1199 x_months))
(assert
 (>= x_beta 0))
(assert
 (let ((?x3482 (+ x_months 24003)))
 (let ((?x4676 (- ?x3482 (* (div (- ?x3482 1) 12) 12))))
 (let ((?x2210 (ite (or (= ?x4676 4) (= ?x4676 6) (= ?x4676 9) (= ?x4676 11)) 30 31)))
 (let (($x4080 (and (= (mod (div (- ?x3482 1) 12) 4) 0) (and (distinct (mod (div (- ?x3482 1) 12) 100) 0) true))))
 (let ((?x5838 (ite (or $x4080 (= (mod (div (- ?x3482 1) 12) 400) 0)) 29 28)))
 (< x_beta (ite (= ?x4676 2) ?x5838 ?x2210))))))))
(assert
 (let ((?x4091 (- (+ (* 2023 12) 1) 24003)))
 (let (($x5848 (= x_months ?x4091)))
 (or (> x_months ?x4091) (and $x5848 (<= 0 x_beta))))))
(assert
 (let ((?x4091 (- (+ (* 2023 12) 1) 24003)))
 (let (($x5848 (= x_months ?x4091)))
 (or (< x_months ?x4091) (and $x5848 (>= 30 x_beta))))))
(assert
 (let ((?x5850 (+ x_beta 1)))
(let ((?x4397 (+ (+ x_months 0) 24003)))
(let ((?x3007 (- ?x4397 (* (div (- ?x4397 1) 12) 12))))
(let ((?x5565 (ite (or (= ?x3007 4) (= ?x3007 6) (= ?x3007 9) (= ?x3007 11)) 30 31)))
(let (($x5828 (and (= (mod (div (- ?x4397 1) 12) 4) 0) (and (distinct (mod (div (- ?x4397 1) 12) 100) 0) true))))
(let (($x4167 (or $x5828 (= (mod (div (- ?x4397 1) 12) 400) 0))))
(let ((?x5563 (ite (= ?x3007 2) (ite $x4167 29 28) ?x5565)))
(let (($x5610 (> 1 ?x5850)))
(let ((?x2312 (ite $x5610 1 (ite (> ?x5850 ?x5563) ?x5563 ?x5850))))
(let ((?x2374 (ite (> 1 ?x2312) 1 (ite (> ?x2312 ?x5563) ?x5563 ?x2312))))
(let ((?x5551 (ite (= 2 ?x3007) (ite $x4167 31 31) (ite (= 1 ?x3007) (ite $x4167 0 0) 0))))
(let ((?x5558 (ite (= 4 ?x3007) (ite $x4167 91 90) (ite (= 3 ?x3007) (ite $x4167 60 59) ?x5551))))
(let ((?x2666 (ite (= 6 ?x3007) (ite $x4167 152 151) (ite (= 5 ?x3007) (ite $x4167 121 120) ?x5558))))
(let ((?x4427 (ite (= 8 ?x3007) (ite $x4167 213 212) (ite (= 7 ?x3007) (ite $x4167 182 181) ?x2666))))
(let ((?x4457 (ite (= 10 ?x3007) (ite $x4167 274 273) (ite (= 9 ?x3007) (ite $x4167 244 243) ?x4427))))
(let ((?x4502 (ite (= 12 ?x3007) (ite $x4167 335 334) (ite (= 11 ?x3007) (ite $x4167 305 304) ?x4457))))
(let ((?x5113 (+ (* 365 (- (div (- ?x4397 1) 12) 1)) (div (- (div (- ?x4397 1) 12) 1) 4))))
(let ((?x4330 (+ (- ?x5113 (div (- (div (- ?x4397 1) 12) 1) 100)) (div (- (div (- ?x4397 1) 12) 1) 400))))
(let ((?x4532 (+ (+ (- (+ (+ ?x4330 ?x4502) (- ?x2374 1)) 730179) 30) 730179)))
(let ((?x5538 (mod ?x4532 146097)))
(let ((?x5536 (div ?x5538 36524)))
(let ((?x5540 (ite (<= 4 ?x5536) 3 ?x5536)))
(let ((?x5542 (- ?x5538 (* ?x5540 36524))))
(let ((?x4551 (mod ?x5542 1461)))
(let ((?x5528 (div ?x4551 365)))
(let ((?x5527 (ite (<= 4 ?x5528) 3 ?x5528)))
(let ((?x5521 (+ (+ (* (div ?x4532 146097) 400) (* ?x5540 100)) (* (div ?x5542 1461) 4))))
(let ((?x5519 (+ (+ ?x5521 ?x5527) 1)))
(let (($x1605 (or (and (= (mod ?x5519 4) 0) (and (distinct (mod ?x5519 100) 0) true)) (= (mod ?x5519 400) 0))))
(let ((?x4323 (- ?x4551 (* ?x5527 365))))
(let ((?x5485 (ite $x1605 31 31)))
(let (($x5487 (>= ?x4323 ?x5485)))
(let ((?x5462 (ite $x5487 (+ (- ?x4323 ?x5485) 1) (+ (- ?x4323 (ite $x1605 0 0)) 1))))
(let ((?x5498 (ite $x1605 60 59)))
(let (($x5484 (>= ?x4323 ?x5498)))
(let ((?x5496 (ite $x1605 91 90)))
(let (($x5473 (>= ?x4323 ?x5496)))
(let ((?x5447 (ite $x5473 (+ (- ?x4323 ?x5496) 1) (ite $x5484 (+ (- ?x4323 ?x5498) 1) ?x5462))))
(let ((?x5499 (ite $x1605 121 120)))
(let (($x5474 (>= ?x4323 ?x5499)))
(let ((?x5497 (ite $x1605 152 151)))
(let (($x5478 (>= ?x4323 ?x5497)))
(let ((?x5437 (ite $x5478 (+ (- ?x4323 ?x5497) 1) (ite $x5474 (+ (- ?x4323 ?x5499) 1) ?x5447))))
(let ((?x5500 (ite $x1605 182 181)))
(let (($x5480 (>= ?x4323 ?x5500)))
(let ((?x5501 (ite $x1605 213 212)))
(let (($x687 (>= ?x4323 ?x5501)))
(let ((?x5427 (ite $x687 (+ (- ?x4323 ?x5501) 1) (ite $x5480 (+ (- ?x4323 ?x5500) 1) ?x5437))))
(let ((?x5502 (ite $x1605 244 243)))
(let (($x2531 (>= ?x4323 ?x5502)))
(let ((?x5503 (ite $x1605 274 273)))
(let (($x4351 (>= ?x4323 ?x5503)))
(let ((?x5420 (ite $x4351 (+ (- ?x4323 ?x5503) 1) (ite $x2531 (+ (- ?x4323 ?x5502) 1) ?x5427))))
(let ((?x4516 (ite $x1605 305 304)))
(let (($x4353 (>= ?x4323 ?x4516)))
(let ((?x5486 (ite $x1605 335 334)))
(let (($x5446 (>= ?x4323 ?x5486)))
(let ((?x5424 (ite $x5446 (+ (- ?x4323 ?x5486) 1) (ite $x4353 (+ (- ?x4323 ?x4516) 1) ?x5420))))
(let (($x3763 (= 30 0)))
(let ((?x1564 (+ (+ x_months 1) 24003)))
(let ((?x4248 (- ?x1564 (* (div (- ?x1564 1) 12) 12))))
(let ((?x4884 (ite (or (= ?x4248 4) (= ?x4248 6) (= ?x4248 9) (= ?x4248 11)) 30 31)))
(let (($x3842 (and (= (mod (div (- ?x1564 1) 12) 4) 0) (and (distinct (mod (div (- ?x1564 1) 12) 100) 0) true))))
(let (($x3577 (or $x3842 (= (mod (div (- ?x1564 1) 12) 400) 0))))
(let ((?x2986 (ite (= ?x4248 2) (ite $x3577 29 28) ?x4884)))
(let ((?x5805 (ite $x5610 1 (ite (> ?x5850 ?x2986) ?x2986 ?x5850))))
(let ((?x5611 (ite (> 1 ?x5805) 1 (ite (> ?x5805 ?x2986) ?x2986 ?x5805))))
(let ((?x677 (ite (= 2 ?x4248) (ite $x3577 31 31) (ite (= 1 ?x4248) (ite $x3577 0 0) 0))))
(let ((?x5635 (ite (= 4 ?x4248) (ite $x3577 91 90) (ite (= 3 ?x4248) (ite $x3577 60 59) ?x677))))
(let ((?x4142 (ite (= 6 ?x4248) (ite $x3577 152 151) (ite (= 5 ?x4248) (ite $x3577 121 120) ?x5635))))
(let ((?x3138 (ite (= 8 ?x4248) (ite $x3577 213 212) (ite (= 7 ?x4248) (ite $x3577 182 181) ?x4142))))
(let ((?x5695 (ite (= 10 ?x4248) (ite $x3577 274 273) (ite (= 9 ?x4248) (ite $x3577 244 243) ?x3138))))
(let ((?x4582 (ite (= 12 ?x4248) (ite $x3577 335 334) (ite (= 11 ?x4248) (ite $x3577 305 304) ?x5695))))
(let ((?x4905 (+ (* 365 (- (div (- ?x1564 1) 12) 1)) (div (- (div (- ?x1564 1) 12) 1) 4))))
(let ((?x5637 (+ (- ?x4905 (div (- (div (- ?x1564 1) 12) 1) 100)) (div (- (div (- ?x1564 1) 12) 1) 400))))
(let ((?x5019 (+ (+ (- (+ (+ ?x5637 ?x4582) (- ?x5611 1)) 730179) 0) 730179)))
(let ((?x5757 (mod ?x5019 146097)))
(let ((?x3896 (div ?x5757 36524)))
(let ((?x4580 (ite (<= 4 ?x3896) 3 ?x3896)))
(let ((?x5755 (- ?x5757 (* ?x4580 36524))))
(let ((?x4953 (mod ?x5755 1461)))
(let ((?x4996 (div ?x4953 365)))
(let ((?x4625 (ite (<= 4 ?x4996) 3 ?x4996)))
(let ((?x5693 (+ (+ (* (div ?x5019 146097) 400) (* ?x4580 100)) (* (div ?x5755 1461) 4))))
(let ((?x4951 (+ (+ ?x5693 ?x4625) 1)))
(let (($x4865 (or (and (= (mod ?x4951 4) 0) (and (distinct (mod ?x4951 100) 0) true)) (= (mod ?x4951 400) 0))))
(let ((?x4974 (- ?x4953 (* ?x4625 365))))
(let ((?x1553 (ite $x4865 31 31)))
(let (($x1028 (>= ?x4974 ?x1553)))
(let ((?x5706 (ite $x1028 (+ (- ?x4974 ?x1553) 1) (+ (- ?x4974 (ite $x4865 0 0)) 1))))
(let ((?x5733 (ite $x4865 60 59)))
(let (($x5634 (>= ?x4974 ?x5733)))
(let ((?x2181 (ite $x4865 91 90)))
(let (($x1210 (>= ?x4974 ?x2181)))
(let ((?x4040 (ite $x1210 (+ (- ?x4974 ?x2181) 1) (ite $x5634 (+ (- ?x4974 ?x5733) 1) ?x5706))))
(let ((?x4590 (ite $x4865 121 120)))
(let (($x5660 (>= ?x4974 ?x4590)))
(let ((?x4906 (ite $x4865 152 151)))
(let (($x3611 (>= ?x4974 ?x4906)))
(let ((?x5707 (ite $x3611 (+ (- ?x4974 ?x4906) 1) (ite $x5660 (+ (- ?x4974 ?x4590) 1) ?x4040))))
(let ((?x5743 (ite $x4865 182 181)))
(let (($x4041 (>= ?x4974 ?x5743)))
(let ((?x5790 (ite $x4865 213 212)))
(let (($x5671 (>= ?x4974 ?x5790)))
(let ((?x4033 (ite $x5671 (+ (- ?x4974 ?x5790) 1) (ite $x4041 (+ (- ?x4974 ?x5743) 1) ?x5707))))
(let ((?x3854 (ite $x4865 244 243)))
(let (($x3731 (>= ?x4974 ?x3854)))
(let ((?x5791 (ite $x4865 274 273)))
(let (($x5683 (>= ?x4974 ?x5791)))
(let ((?x4390 (ite $x5683 (+ (- ?x4974 ?x5791) 1) (ite $x3731 (+ (- ?x4974 ?x3854) 1) ?x4033))))
(let ((?x5708 (ite $x4865 305 304)))
(let (($x2752 (>= ?x4974 ?x5708)))
(let ((?x3907 (ite $x4865 335 334)))
(let (($x4929 (>= ?x4974 ?x3907)))
(let ((?x5576 (ite $x4929 (+ (- ?x4974 ?x3907) 1) (ite $x2752 (+ (- ?x4974 ?x5708) 1) ?x4390))))
(let (($x411 (= 0 0)))
(let ((?x5477 (ite $x5474 5 (ite $x5473 4 (ite $x5484 3 (ite $x5487 2 1))))))
(let ((?x4350 (ite $x2531 9 (ite $x687 8 (ite $x5480 7 (ite $x5478 6 ?x5477))))))
(let ((?x5459 (ite $x5446 12 (ite $x4353 11 (ite $x4351 10 ?x4350)))))
(let ((?x4158 (+ (* (ite $x3763 (div (- ?x4397 1) 12) ?x5519) 12) (ite $x3763 ?x3007 ?x5459))))
(let ((?x5661 (ite $x5660 5 (ite $x1210 4 (ite $x5634 3 (ite $x1028 2 1))))))
(let ((?x5670 (ite $x3731 9 (ite $x5671 8 (ite $x4041 7 (ite $x3611 6 ?x5661))))))
(let ((?x5579 (+ (* (ite $x411 (div (- ?x1564 1) 12) ?x4951) 12) (ite $x411 ?x4248 (ite $x4929 12 (ite $x2752 11 (ite $x5683 10 ?x5670)))))))
(let (($x5395 (and (= (- ?x5579 24003) (- ?x4158 24003)) (= (- (ite $x411 ?x5611 ?x5576) 1) (- (ite $x3763 ?x2374 ?x5424) 1)))))
(not $x5395))))))))))))))))))))))))))))))))))))))))))))))))))))))))))))))))))))))))))))))))))))))))))))))))))))))))))))))))))))))))))))))
(check-sat)
